(set-logic LIA)

(declare-const x Int)
(declare-const x! Int)
(declare-const tmp Int)
(declare-const tmp! Int)
(declare-const n Int)
(declare-const n! Int)
(declare-const m Int)
(declare-const m! Int)

(declare-const x_33 Int)
(declare-const x_26 Int)
(declare-const x_22 Int)
(declare-const n_0 Int)
(declare-const m_34 Int)
(declare-const m_31 Int)
(declare-const m_25 Int)
(declare-const m_23 Int)

(define-fun inv-f((m Int)(n Int)(tmp Int)(x Int)) Bool
